c *********************************
c * Circuit generated by BenCGen
c *
c * CarrySelectAdder_54_54_54_InOut_G4T
c *
c * Ports with 1 gate(s): 92
c * Ports with 2 gate(s): 738
c * Ports with 4 gate(s): 24
c * Total gates: 854
c *********************************
p cnf 962 2726
1 165 0
-1 -165 0
1 -164 0
165 -164 0
-1 -165 164 0
164 182 0
-164 -182 0
1 55 -168 0
-1 55 168 0
1 -55 168 0
-1 -55 -168 0
168 164 -109 0
-168 164 109 0
168 -164 109 0
-168 -164 -109 0
164 -169 0
168 -169 0
-164 -168 169 0
55 -170 0
1 -170 0
-55 -1 170 0
-169 167 0
-170 167 0
169 170 -167 0
2 56 -172 0
-2 56 172 0
2 -56 172 0
-2 -56 -172 0
172 167 -110 0
-172 167 110 0
172 -167 110 0
-172 -167 -110 0
167 -173 0
172 -173 0
-167 -172 173 0
56 -174 0
2 -174 0
-56 -2 174 0
-173 171 0
-174 171 0
173 174 -171 0
3 57 -176 0
-3 57 176 0
3 -57 176 0
-3 -57 -176 0
176 171 -111 0
-176 171 111 0
176 -171 111 0
-176 -171 -111 0
171 -177 0
176 -177 0
-171 -176 177 0
57 -178 0
3 -178 0
-57 -3 178 0
-177 175 0
-178 175 0
177 178 -175 0
4 58 -179 0
-4 58 179 0
4 -58 179 0
-4 -58 -179 0
179 175 -112 0
-179 175 112 0
179 -175 112 0
-179 -175 -112 0
175 -180 0
179 -180 0
-175 -179 180 0
58 -181 0
4 -181 0
-58 -4 181 0
-180 166 0
-181 166 0
180 181 -166 0
5 59 -193 0
-5 59 193 0
5 -59 193 0
-5 -59 -193 0
193 164 -183 0
-193 164 183 0
193 -164 183 0
-193 -164 -183 0
164 -194 0
193 -194 0
-164 -193 194 0
59 -195 0
5 -195 0
-59 -5 195 0
-194 192 0
-195 192 0
194 195 -192 0
6 60 -197 0
-6 60 197 0
6 -60 197 0
-6 -60 -197 0
197 192 -184 0
-197 192 184 0
197 -192 184 0
-197 -192 -184 0
192 -198 0
197 -198 0
-192 -197 198 0
60 -199 0
6 -199 0
-60 -6 199 0
-198 196 0
-199 196 0
198 199 -196 0
7 61 -201 0
-7 61 201 0
7 -61 201 0
-7 -61 -201 0
201 196 -185 0
-201 196 185 0
201 -196 185 0
-201 -196 -185 0
196 -202 0
201 -202 0
-196 -201 202 0
61 -203 0
7 -203 0
-61 -7 203 0
-202 200 0
-203 200 0
202 203 -200 0
8 62 -204 0
-8 62 204 0
8 -62 204 0
-8 -62 -204 0
204 200 -186 0
-204 200 186 0
204 -200 186 0
-204 -200 -186 0
200 -205 0
204 -205 0
-200 -204 205 0
62 -206 0
8 -206 0
-62 -8 206 0
-205 191 0
-206 191 0
205 206 -191 0
193 -207 0
197 -207 0
201 -207 0
204 -207 0
-193 -197 -201 -204 207 0
206 -208 0
-206 208 0
5 59 -211 0
-5 59 211 0
5 -59 211 0
-5 -59 -211 0
211 182 -187 0
-211 182 187 0
211 -182 187 0
-211 -182 -187 0
182 -212 0
211 -212 0
-182 -211 212 0
59 -213 0
5 -213 0
-59 -5 213 0
-212 210 0
-213 210 0
212 213 -210 0
6 60 -215 0
-6 60 215 0
6 -60 215 0
-6 -60 -215 0
215 210 -188 0
-215 210 188 0
215 -210 188 0
-215 -210 -188 0
210 -216 0
215 -216 0
-210 -215 216 0
60 -217 0
6 -217 0
-60 -6 217 0
-216 214 0
-217 214 0
216 217 -214 0
7 61 -219 0
-7 61 219 0
7 -61 219 0
-7 -61 -219 0
219 214 -189 0
-219 214 189 0
219 -214 189 0
-219 -214 -189 0
214 -220 0
219 -220 0
-214 -219 220 0
61 -221 0
7 -221 0
-61 -7 221 0
-220 218 0
-221 218 0
220 221 -218 0
8 62 -222 0
-8 62 222 0
8 -62 222 0
-8 -62 -222 0
222 218 -190 0
-222 218 190 0
222 -218 190 0
-222 -218 -190 0
218 -223 0
222 -223 0
-218 -222 223 0
62 -224 0
8 -224 0
-62 -8 224 0
-223 209 0
-224 209 0
223 224 -209 0
211 -225 0
215 -225 0
219 -225 0
222 -225 0
-211 -215 -219 -222 225 0
224 -226 0
-224 226 0
9 63 -255 0
-9 63 255 0
9 -63 255 0
-9 -63 -255 0
255 164 -245 0
-255 164 245 0
255 -164 245 0
-255 -164 -245 0
164 -256 0
255 -256 0
-164 -255 256 0
63 -257 0
9 -257 0
-63 -9 257 0
-256 254 0
-257 254 0
256 257 -254 0
10 64 -259 0
-10 64 259 0
10 -64 259 0
-10 -64 -259 0
259 254 -246 0
-259 254 246 0
259 -254 246 0
-259 -254 -246 0
254 -260 0
259 -260 0
-254 -259 260 0
64 -261 0
10 -261 0
-64 -10 261 0
-260 258 0
-261 258 0
260 261 -258 0
11 65 -263 0
-11 65 263 0
11 -65 263 0
-11 -65 -263 0
263 258 -247 0
-263 258 247 0
263 -258 247 0
-263 -258 -247 0
258 -264 0
263 -264 0
-258 -263 264 0
65 -265 0
11 -265 0
-65 -11 265 0
-264 262 0
-265 262 0
264 265 -262 0
12 66 -266 0
-12 66 266 0
12 -66 266 0
-12 -66 -266 0
266 262 -248 0
-266 262 248 0
266 -262 248 0
-266 -262 -248 0
262 -267 0
266 -267 0
-262 -266 267 0
66 -268 0
12 -268 0
-66 -12 268 0
-267 253 0
-268 253 0
267 268 -253 0
255 -269 0
259 -269 0
263 -269 0
266 -269 0
-255 -259 -263 -266 269 0
268 -270 0
-268 270 0
9 63 -273 0
-9 63 273 0
9 -63 273 0
-9 -63 -273 0
273 182 -249 0
-273 182 249 0
273 -182 249 0
-273 -182 -249 0
182 -274 0
273 -274 0
-182 -273 274 0
63 -275 0
9 -275 0
-63 -9 275 0
-274 272 0
-275 272 0
274 275 -272 0
10 64 -277 0
-10 64 277 0
10 -64 277 0
-10 -64 -277 0
277 272 -250 0
-277 272 250 0
277 -272 250 0
-277 -272 -250 0
272 -278 0
277 -278 0
-272 -277 278 0
64 -279 0
10 -279 0
-64 -10 279 0
-278 276 0
-279 276 0
278 279 -276 0
11 65 -281 0
-11 65 281 0
11 -65 281 0
-11 -65 -281 0
281 276 -251 0
-281 276 251 0
281 -276 251 0
-281 -276 -251 0
276 -282 0
281 -282 0
-276 -281 282 0
65 -283 0
11 -283 0
-65 -11 283 0
-282 280 0
-283 280 0
282 283 -280 0
12 66 -284 0
-12 66 284 0
12 -66 284 0
-12 -66 -284 0
284 280 -252 0
-284 280 252 0
284 -280 252 0
-284 -280 -252 0
280 -285 0
284 -285 0
-280 -284 285 0
66 -286 0
12 -286 0
-66 -12 286 0
-285 271 0
-286 271 0
285 286 -271 0
273 -287 0
277 -287 0
281 -287 0
284 -287 0
-273 -277 -281 -284 287 0
286 -288 0
-286 288 0
13 67 -317 0
-13 67 317 0
13 -67 317 0
-13 -67 -317 0
317 164 -307 0
-317 164 307 0
317 -164 307 0
-317 -164 -307 0
164 -318 0
317 -318 0
-164 -317 318 0
67 -319 0
13 -319 0
-67 -13 319 0
-318 316 0
-319 316 0
318 319 -316 0
14 68 -321 0
-14 68 321 0
14 -68 321 0
-14 -68 -321 0
321 316 -308 0
-321 316 308 0
321 -316 308 0
-321 -316 -308 0
316 -322 0
321 -322 0
-316 -321 322 0
68 -323 0
14 -323 0
-68 -14 323 0
-322 320 0
-323 320 0
322 323 -320 0
15 69 -325 0
-15 69 325 0
15 -69 325 0
-15 -69 -325 0
325 320 -309 0
-325 320 309 0
325 -320 309 0
-325 -320 -309 0
320 -326 0
325 -326 0
-320 -325 326 0
69 -327 0
15 -327 0
-69 -15 327 0
-326 324 0
-327 324 0
326 327 -324 0
16 70 -328 0
-16 70 328 0
16 -70 328 0
-16 -70 -328 0
328 324 -310 0
-328 324 310 0
328 -324 310 0
-328 -324 -310 0
324 -329 0
328 -329 0
-324 -328 329 0
70 -330 0
16 -330 0
-70 -16 330 0
-329 315 0
-330 315 0
329 330 -315 0
317 -331 0
321 -331 0
325 -331 0
328 -331 0
-317 -321 -325 -328 331 0
330 -332 0
-330 332 0
13 67 -335 0
-13 67 335 0
13 -67 335 0
-13 -67 -335 0
335 182 -311 0
-335 182 311 0
335 -182 311 0
-335 -182 -311 0
182 -336 0
335 -336 0
-182 -335 336 0
67 -337 0
13 -337 0
-67 -13 337 0
-336 334 0
-337 334 0
336 337 -334 0
14 68 -339 0
-14 68 339 0
14 -68 339 0
-14 -68 -339 0
339 334 -312 0
-339 334 312 0
339 -334 312 0
-339 -334 -312 0
334 -340 0
339 -340 0
-334 -339 340 0
68 -341 0
14 -341 0
-68 -14 341 0
-340 338 0
-341 338 0
340 341 -338 0
15 69 -343 0
-15 69 343 0
15 -69 343 0
-15 -69 -343 0
343 338 -313 0
-343 338 313 0
343 -338 313 0
-343 -338 -313 0
338 -344 0
343 -344 0
-338 -343 344 0
69 -345 0
15 -345 0
-69 -15 345 0
-344 342 0
-345 342 0
344 345 -342 0
16 70 -346 0
-16 70 346 0
16 -70 346 0
-16 -70 -346 0
346 342 -314 0
-346 342 314 0
346 -342 314 0
-346 -342 -314 0
342 -347 0
346 -347 0
-342 -346 347 0
70 -348 0
16 -348 0
-70 -16 348 0
-347 333 0
-348 333 0
347 348 -333 0
335 -349 0
339 -349 0
343 -349 0
346 -349 0
-335 -339 -343 -346 349 0
348 -350 0
-348 350 0
17 71 -379 0
-17 71 379 0
17 -71 379 0
-17 -71 -379 0
379 164 -369 0
-379 164 369 0
379 -164 369 0
-379 -164 -369 0
164 -380 0
379 -380 0
-164 -379 380 0
71 -381 0
17 -381 0
-71 -17 381 0
-380 378 0
-381 378 0
380 381 -378 0
18 72 -383 0
-18 72 383 0
18 -72 383 0
-18 -72 -383 0
383 378 -370 0
-383 378 370 0
383 -378 370 0
-383 -378 -370 0
378 -384 0
383 -384 0
-378 -383 384 0
72 -385 0
18 -385 0
-72 -18 385 0
-384 382 0
-385 382 0
384 385 -382 0
19 73 -387 0
-19 73 387 0
19 -73 387 0
-19 -73 -387 0
387 382 -371 0
-387 382 371 0
387 -382 371 0
-387 -382 -371 0
382 -388 0
387 -388 0
-382 -387 388 0
73 -389 0
19 -389 0
-73 -19 389 0
-388 386 0
-389 386 0
388 389 -386 0
20 74 -390 0
-20 74 390 0
20 -74 390 0
-20 -74 -390 0
390 386 -372 0
-390 386 372 0
390 -386 372 0
-390 -386 -372 0
386 -391 0
390 -391 0
-386 -390 391 0
74 -392 0
20 -392 0
-74 -20 392 0
-391 377 0
-392 377 0
391 392 -377 0
379 -393 0
383 -393 0
387 -393 0
390 -393 0
-379 -383 -387 -390 393 0
392 -394 0
-392 394 0
17 71 -397 0
-17 71 397 0
17 -71 397 0
-17 -71 -397 0
397 182 -373 0
-397 182 373 0
397 -182 373 0
-397 -182 -373 0
182 -398 0
397 -398 0
-182 -397 398 0
71 -399 0
17 -399 0
-71 -17 399 0
-398 396 0
-399 396 0
398 399 -396 0
18 72 -401 0
-18 72 401 0
18 -72 401 0
-18 -72 -401 0
401 396 -374 0
-401 396 374 0
401 -396 374 0
-401 -396 -374 0
396 -402 0
401 -402 0
-396 -401 402 0
72 -403 0
18 -403 0
-72 -18 403 0
-402 400 0
-403 400 0
402 403 -400 0
19 73 -405 0
-19 73 405 0
19 -73 405 0
-19 -73 -405 0
405 400 -375 0
-405 400 375 0
405 -400 375 0
-405 -400 -375 0
400 -406 0
405 -406 0
-400 -405 406 0
73 -407 0
19 -407 0
-73 -19 407 0
-406 404 0
-407 404 0
406 407 -404 0
20 74 -408 0
-20 74 408 0
20 -74 408 0
-20 -74 -408 0
408 404 -376 0
-408 404 376 0
408 -404 376 0
-408 -404 -376 0
404 -409 0
408 -409 0
-404 -408 409 0
74 -410 0
20 -410 0
-74 -20 410 0
-409 395 0
-410 395 0
409 410 -395 0
397 -411 0
401 -411 0
405 -411 0
408 -411 0
-397 -401 -405 -408 411 0
410 -412 0
-410 412 0
21 75 -441 0
-21 75 441 0
21 -75 441 0
-21 -75 -441 0
441 164 -431 0
-441 164 431 0
441 -164 431 0
-441 -164 -431 0
164 -442 0
441 -442 0
-164 -441 442 0
75 -443 0
21 -443 0
-75 -21 443 0
-442 440 0
-443 440 0
442 443 -440 0
22 76 -445 0
-22 76 445 0
22 -76 445 0
-22 -76 -445 0
445 440 -432 0
-445 440 432 0
445 -440 432 0
-445 -440 -432 0
440 -446 0
445 -446 0
-440 -445 446 0
76 -447 0
22 -447 0
-76 -22 447 0
-446 444 0
-447 444 0
446 447 -444 0
23 77 -449 0
-23 77 449 0
23 -77 449 0
-23 -77 -449 0
449 444 -433 0
-449 444 433 0
449 -444 433 0
-449 -444 -433 0
444 -450 0
449 -450 0
-444 -449 450 0
77 -451 0
23 -451 0
-77 -23 451 0
-450 448 0
-451 448 0
450 451 -448 0
24 78 -452 0
-24 78 452 0
24 -78 452 0
-24 -78 -452 0
452 448 -434 0
-452 448 434 0
452 -448 434 0
-452 -448 -434 0
448 -453 0
452 -453 0
-448 -452 453 0
78 -454 0
24 -454 0
-78 -24 454 0
-453 439 0
-454 439 0
453 454 -439 0
441 -455 0
445 -455 0
449 -455 0
452 -455 0
-441 -445 -449 -452 455 0
454 -456 0
-454 456 0
21 75 -459 0
-21 75 459 0
21 -75 459 0
-21 -75 -459 0
459 182 -435 0
-459 182 435 0
459 -182 435 0
-459 -182 -435 0
182 -460 0
459 -460 0
-182 -459 460 0
75 -461 0
21 -461 0
-75 -21 461 0
-460 458 0
-461 458 0
460 461 -458 0
22 76 -463 0
-22 76 463 0
22 -76 463 0
-22 -76 -463 0
463 458 -436 0
-463 458 436 0
463 -458 436 0
-463 -458 -436 0
458 -464 0
463 -464 0
-458 -463 464 0
76 -465 0
22 -465 0
-76 -22 465 0
-464 462 0
-465 462 0
464 465 -462 0
23 77 -467 0
-23 77 467 0
23 -77 467 0
-23 -77 -467 0
467 462 -437 0
-467 462 437 0
467 -462 437 0
-467 -462 -437 0
462 -468 0
467 -468 0
-462 -467 468 0
77 -469 0
23 -469 0
-77 -23 469 0
-468 466 0
-469 466 0
468 469 -466 0
24 78 -470 0
-24 78 470 0
24 -78 470 0
-24 -78 -470 0
470 466 -438 0
-470 466 438 0
470 -466 438 0
-470 -466 -438 0
466 -471 0
470 -471 0
-466 -470 471 0
78 -472 0
24 -472 0
-78 -24 472 0
-471 457 0
-472 457 0
471 472 -457 0
459 -473 0
463 -473 0
467 -473 0
470 -473 0
-459 -463 -467 -470 473 0
472 -474 0
-472 474 0
25 79 -503 0
-25 79 503 0
25 -79 503 0
-25 -79 -503 0
503 164 -493 0
-503 164 493 0
503 -164 493 0
-503 -164 -493 0
164 -504 0
503 -504 0
-164 -503 504 0
79 -505 0
25 -505 0
-79 -25 505 0
-504 502 0
-505 502 0
504 505 -502 0
26 80 -507 0
-26 80 507 0
26 -80 507 0
-26 -80 -507 0
507 502 -494 0
-507 502 494 0
507 -502 494 0
-507 -502 -494 0
502 -508 0
507 -508 0
-502 -507 508 0
80 -509 0
26 -509 0
-80 -26 509 0
-508 506 0
-509 506 0
508 509 -506 0
27 81 -511 0
-27 81 511 0
27 -81 511 0
-27 -81 -511 0
511 506 -495 0
-511 506 495 0
511 -506 495 0
-511 -506 -495 0
506 -512 0
511 -512 0
-506 -511 512 0
81 -513 0
27 -513 0
-81 -27 513 0
-512 510 0
-513 510 0
512 513 -510 0
28 82 -514 0
-28 82 514 0
28 -82 514 0
-28 -82 -514 0
514 510 -496 0
-514 510 496 0
514 -510 496 0
-514 -510 -496 0
510 -515 0
514 -515 0
-510 -514 515 0
82 -516 0
28 -516 0
-82 -28 516 0
-515 501 0
-516 501 0
515 516 -501 0
503 -517 0
507 -517 0
511 -517 0
514 -517 0
-503 -507 -511 -514 517 0
516 -518 0
-516 518 0
25 79 -521 0
-25 79 521 0
25 -79 521 0
-25 -79 -521 0
521 182 -497 0
-521 182 497 0
521 -182 497 0
-521 -182 -497 0
182 -522 0
521 -522 0
-182 -521 522 0
79 -523 0
25 -523 0
-79 -25 523 0
-522 520 0
-523 520 0
522 523 -520 0
26 80 -525 0
-26 80 525 0
26 -80 525 0
-26 -80 -525 0
525 520 -498 0
-525 520 498 0
525 -520 498 0
-525 -520 -498 0
520 -526 0
525 -526 0
-520 -525 526 0
80 -527 0
26 -527 0
-80 -26 527 0
-526 524 0
-527 524 0
526 527 -524 0
27 81 -529 0
-27 81 529 0
27 -81 529 0
-27 -81 -529 0
529 524 -499 0
-529 524 499 0
529 -524 499 0
-529 -524 -499 0
524 -530 0
529 -530 0
-524 -529 530 0
81 -531 0
27 -531 0
-81 -27 531 0
-530 528 0
-531 528 0
530 531 -528 0
28 82 -532 0
-28 82 532 0
28 -82 532 0
-28 -82 -532 0
532 528 -500 0
-532 528 500 0
532 -528 500 0
-532 -528 -500 0
528 -533 0
532 -533 0
-528 -532 533 0
82 -534 0
28 -534 0
-82 -28 534 0
-533 519 0
-534 519 0
533 534 -519 0
521 -535 0
525 -535 0
529 -535 0
532 -535 0
-521 -525 -529 -532 535 0
534 -536 0
-534 536 0
29 83 -565 0
-29 83 565 0
29 -83 565 0
-29 -83 -565 0
565 164 -555 0
-565 164 555 0
565 -164 555 0
-565 -164 -555 0
164 -566 0
565 -566 0
-164 -565 566 0
83 -567 0
29 -567 0
-83 -29 567 0
-566 564 0
-567 564 0
566 567 -564 0
30 84 -569 0
-30 84 569 0
30 -84 569 0
-30 -84 -569 0
569 564 -556 0
-569 564 556 0
569 -564 556 0
-569 -564 -556 0
564 -570 0
569 -570 0
-564 -569 570 0
84 -571 0
30 -571 0
-84 -30 571 0
-570 568 0
-571 568 0
570 571 -568 0
31 85 -573 0
-31 85 573 0
31 -85 573 0
-31 -85 -573 0
573 568 -557 0
-573 568 557 0
573 -568 557 0
-573 -568 -557 0
568 -574 0
573 -574 0
-568 -573 574 0
85 -575 0
31 -575 0
-85 -31 575 0
-574 572 0
-575 572 0
574 575 -572 0
32 86 -576 0
-32 86 576 0
32 -86 576 0
-32 -86 -576 0
576 572 -558 0
-576 572 558 0
576 -572 558 0
-576 -572 -558 0
572 -577 0
576 -577 0
-572 -576 577 0
86 -578 0
32 -578 0
-86 -32 578 0
-577 563 0
-578 563 0
577 578 -563 0
565 -579 0
569 -579 0
573 -579 0
576 -579 0
-565 -569 -573 -576 579 0
578 -580 0
-578 580 0
29 83 -583 0
-29 83 583 0
29 -83 583 0
-29 -83 -583 0
583 182 -559 0
-583 182 559 0
583 -182 559 0
-583 -182 -559 0
182 -584 0
583 -584 0
-182 -583 584 0
83 -585 0
29 -585 0
-83 -29 585 0
-584 582 0
-585 582 0
584 585 -582 0
30 84 -587 0
-30 84 587 0
30 -84 587 0
-30 -84 -587 0
587 582 -560 0
-587 582 560 0
587 -582 560 0
-587 -582 -560 0
582 -588 0
587 -588 0
-582 -587 588 0
84 -589 0
30 -589 0
-84 -30 589 0
-588 586 0
-589 586 0
588 589 -586 0
31 85 -591 0
-31 85 591 0
31 -85 591 0
-31 -85 -591 0
591 586 -561 0
-591 586 561 0
591 -586 561 0
-591 -586 -561 0
586 -592 0
591 -592 0
-586 -591 592 0
85 -593 0
31 -593 0
-85 -31 593 0
-592 590 0
-593 590 0
592 593 -590 0
32 86 -594 0
-32 86 594 0
32 -86 594 0
-32 -86 -594 0
594 590 -562 0
-594 590 562 0
594 -590 562 0
-594 -590 -562 0
590 -595 0
594 -595 0
-590 -594 595 0
86 -596 0
32 -596 0
-86 -32 596 0
-595 581 0
-596 581 0
595 596 -581 0
583 -597 0
587 -597 0
591 -597 0
594 -597 0
-583 -587 -591 -594 597 0
596 -598 0
-596 598 0
33 87 -627 0
-33 87 627 0
33 -87 627 0
-33 -87 -627 0
627 164 -617 0
-627 164 617 0
627 -164 617 0
-627 -164 -617 0
164 -628 0
627 -628 0
-164 -627 628 0
87 -629 0
33 -629 0
-87 -33 629 0
-628 626 0
-629 626 0
628 629 -626 0
34 88 -631 0
-34 88 631 0
34 -88 631 0
-34 -88 -631 0
631 626 -618 0
-631 626 618 0
631 -626 618 0
-631 -626 -618 0
626 -632 0
631 -632 0
-626 -631 632 0
88 -633 0
34 -633 0
-88 -34 633 0
-632 630 0
-633 630 0
632 633 -630 0
35 89 -635 0
-35 89 635 0
35 -89 635 0
-35 -89 -635 0
635 630 -619 0
-635 630 619 0
635 -630 619 0
-635 -630 -619 0
630 -636 0
635 -636 0
-630 -635 636 0
89 -637 0
35 -637 0
-89 -35 637 0
-636 634 0
-637 634 0
636 637 -634 0
36 90 -638 0
-36 90 638 0
36 -90 638 0
-36 -90 -638 0
638 634 -620 0
-638 634 620 0
638 -634 620 0
-638 -634 -620 0
634 -639 0
638 -639 0
-634 -638 639 0
90 -640 0
36 -640 0
-90 -36 640 0
-639 625 0
-640 625 0
639 640 -625 0
627 -641 0
631 -641 0
635 -641 0
638 -641 0
-627 -631 -635 -638 641 0
640 -642 0
-640 642 0
33 87 -645 0
-33 87 645 0
33 -87 645 0
-33 -87 -645 0
645 182 -621 0
-645 182 621 0
645 -182 621 0
-645 -182 -621 0
182 -646 0
645 -646 0
-182 -645 646 0
87 -647 0
33 -647 0
-87 -33 647 0
-646 644 0
-647 644 0
646 647 -644 0
34 88 -649 0
-34 88 649 0
34 -88 649 0
-34 -88 -649 0
649 644 -622 0
-649 644 622 0
649 -644 622 0
-649 -644 -622 0
644 -650 0
649 -650 0
-644 -649 650 0
88 -651 0
34 -651 0
-88 -34 651 0
-650 648 0
-651 648 0
650 651 -648 0
35 89 -653 0
-35 89 653 0
35 -89 653 0
-35 -89 -653 0
653 648 -623 0
-653 648 623 0
653 -648 623 0
-653 -648 -623 0
648 -654 0
653 -654 0
-648 -653 654 0
89 -655 0
35 -655 0
-89 -35 655 0
-654 652 0
-655 652 0
654 655 -652 0
36 90 -656 0
-36 90 656 0
36 -90 656 0
-36 -90 -656 0
656 652 -624 0
-656 652 624 0
656 -652 624 0
-656 -652 -624 0
652 -657 0
656 -657 0
-652 -656 657 0
90 -658 0
36 -658 0
-90 -36 658 0
-657 643 0
-658 643 0
657 658 -643 0
645 -659 0
649 -659 0
653 -659 0
656 -659 0
-645 -649 -653 -656 659 0
658 -660 0
-658 660 0
37 91 -689 0
-37 91 689 0
37 -91 689 0
-37 -91 -689 0
689 164 -679 0
-689 164 679 0
689 -164 679 0
-689 -164 -679 0
164 -690 0
689 -690 0
-164 -689 690 0
91 -691 0
37 -691 0
-91 -37 691 0
-690 688 0
-691 688 0
690 691 -688 0
38 92 -693 0
-38 92 693 0
38 -92 693 0
-38 -92 -693 0
693 688 -680 0
-693 688 680 0
693 -688 680 0
-693 -688 -680 0
688 -694 0
693 -694 0
-688 -693 694 0
92 -695 0
38 -695 0
-92 -38 695 0
-694 692 0
-695 692 0
694 695 -692 0
39 93 -697 0
-39 93 697 0
39 -93 697 0
-39 -93 -697 0
697 692 -681 0
-697 692 681 0
697 -692 681 0
-697 -692 -681 0
692 -698 0
697 -698 0
-692 -697 698 0
93 -699 0
39 -699 0
-93 -39 699 0
-698 696 0
-699 696 0
698 699 -696 0
40 94 -700 0
-40 94 700 0
40 -94 700 0
-40 -94 -700 0
700 696 -682 0
-700 696 682 0
700 -696 682 0
-700 -696 -682 0
696 -701 0
700 -701 0
-696 -700 701 0
94 -702 0
40 -702 0
-94 -40 702 0
-701 687 0
-702 687 0
701 702 -687 0
689 -703 0
693 -703 0
697 -703 0
700 -703 0
-689 -693 -697 -700 703 0
702 -704 0
-702 704 0
37 91 -707 0
-37 91 707 0
37 -91 707 0
-37 -91 -707 0
707 182 -683 0
-707 182 683 0
707 -182 683 0
-707 -182 -683 0
182 -708 0
707 -708 0
-182 -707 708 0
91 -709 0
37 -709 0
-91 -37 709 0
-708 706 0
-709 706 0
708 709 -706 0
38 92 -711 0
-38 92 711 0
38 -92 711 0
-38 -92 -711 0
711 706 -684 0
-711 706 684 0
711 -706 684 0
-711 -706 -684 0
706 -712 0
711 -712 0
-706 -711 712 0
92 -713 0
38 -713 0
-92 -38 713 0
-712 710 0
-713 710 0
712 713 -710 0
39 93 -715 0
-39 93 715 0
39 -93 715 0
-39 -93 -715 0
715 710 -685 0
-715 710 685 0
715 -710 685 0
-715 -710 -685 0
710 -716 0
715 -716 0
-710 -715 716 0
93 -717 0
39 -717 0
-93 -39 717 0
-716 714 0
-717 714 0
716 717 -714 0
40 94 -718 0
-40 94 718 0
40 -94 718 0
-40 -94 -718 0
718 714 -686 0
-718 714 686 0
718 -714 686 0
-718 -714 -686 0
714 -719 0
718 -719 0
-714 -718 719 0
94 -720 0
40 -720 0
-94 -40 720 0
-719 705 0
-720 705 0
719 720 -705 0
707 -721 0
711 -721 0
715 -721 0
718 -721 0
-707 -711 -715 -718 721 0
720 -722 0
-720 722 0
41 95 -751 0
-41 95 751 0
41 -95 751 0
-41 -95 -751 0
751 164 -741 0
-751 164 741 0
751 -164 741 0
-751 -164 -741 0
164 -752 0
751 -752 0
-164 -751 752 0
95 -753 0
41 -753 0
-95 -41 753 0
-752 750 0
-753 750 0
752 753 -750 0
42 96 -755 0
-42 96 755 0
42 -96 755 0
-42 -96 -755 0
755 750 -742 0
-755 750 742 0
755 -750 742 0
-755 -750 -742 0
750 -756 0
755 -756 0
-750 -755 756 0
96 -757 0
42 -757 0
-96 -42 757 0
-756 754 0
-757 754 0
756 757 -754 0
43 97 -759 0
-43 97 759 0
43 -97 759 0
-43 -97 -759 0
759 754 -743 0
-759 754 743 0
759 -754 743 0
-759 -754 -743 0
754 -760 0
759 -760 0
-754 -759 760 0
97 -761 0
43 -761 0
-97 -43 761 0
-760 758 0
-761 758 0
760 761 -758 0
44 98 -762 0
-44 98 762 0
44 -98 762 0
-44 -98 -762 0
762 758 -744 0
-762 758 744 0
762 -758 744 0
-762 -758 -744 0
758 -763 0
762 -763 0
-758 -762 763 0
98 -764 0
44 -764 0
-98 -44 764 0
-763 749 0
-764 749 0
763 764 -749 0
751 -765 0
755 -765 0
759 -765 0
762 -765 0
-751 -755 -759 -762 765 0
764 -766 0
-764 766 0
41 95 -769 0
-41 95 769 0
41 -95 769 0
-41 -95 -769 0
769 182 -745 0
-769 182 745 0
769 -182 745 0
-769 -182 -745 0
182 -770 0
769 -770 0
-182 -769 770 0
95 -771 0
41 -771 0
-95 -41 771 0
-770 768 0
-771 768 0
770 771 -768 0
42 96 -773 0
-42 96 773 0
42 -96 773 0
-42 -96 -773 0
773 768 -746 0
-773 768 746 0
773 -768 746 0
-773 -768 -746 0
768 -774 0
773 -774 0
-768 -773 774 0
96 -775 0
42 -775 0
-96 -42 775 0
-774 772 0
-775 772 0
774 775 -772 0
43 97 -777 0
-43 97 777 0
43 -97 777 0
-43 -97 -777 0
777 772 -747 0
-777 772 747 0
777 -772 747 0
-777 -772 -747 0
772 -778 0
777 -778 0
-772 -777 778 0
97 -779 0
43 -779 0
-97 -43 779 0
-778 776 0
-779 776 0
778 779 -776 0
44 98 -780 0
-44 98 780 0
44 -98 780 0
-44 -98 -780 0
780 776 -748 0
-780 776 748 0
780 -776 748 0
-780 -776 -748 0
776 -781 0
780 -781 0
-776 -780 781 0
98 -782 0
44 -782 0
-98 -44 782 0
-781 767 0
-782 767 0
781 782 -767 0
769 -783 0
773 -783 0
777 -783 0
780 -783 0
-769 -773 -777 -780 783 0
782 -784 0
-782 784 0
45 99 -813 0
-45 99 813 0
45 -99 813 0
-45 -99 -813 0
813 164 -803 0
-813 164 803 0
813 -164 803 0
-813 -164 -803 0
164 -814 0
813 -814 0
-164 -813 814 0
99 -815 0
45 -815 0
-99 -45 815 0
-814 812 0
-815 812 0
814 815 -812 0
46 100 -817 0
-46 100 817 0
46 -100 817 0
-46 -100 -817 0
817 812 -804 0
-817 812 804 0
817 -812 804 0
-817 -812 -804 0
812 -818 0
817 -818 0
-812 -817 818 0
100 -819 0
46 -819 0
-100 -46 819 0
-818 816 0
-819 816 0
818 819 -816 0
47 101 -821 0
-47 101 821 0
47 -101 821 0
-47 -101 -821 0
821 816 -805 0
-821 816 805 0
821 -816 805 0
-821 -816 -805 0
816 -822 0
821 -822 0
-816 -821 822 0
101 -823 0
47 -823 0
-101 -47 823 0
-822 820 0
-823 820 0
822 823 -820 0
48 102 -824 0
-48 102 824 0
48 -102 824 0
-48 -102 -824 0
824 820 -806 0
-824 820 806 0
824 -820 806 0
-824 -820 -806 0
820 -825 0
824 -825 0
-820 -824 825 0
102 -826 0
48 -826 0
-102 -48 826 0
-825 811 0
-826 811 0
825 826 -811 0
813 -827 0
817 -827 0
821 -827 0
824 -827 0
-813 -817 -821 -824 827 0
826 -828 0
-826 828 0
45 99 -831 0
-45 99 831 0
45 -99 831 0
-45 -99 -831 0
831 182 -807 0
-831 182 807 0
831 -182 807 0
-831 -182 -807 0
182 -832 0
831 -832 0
-182 -831 832 0
99 -833 0
45 -833 0
-99 -45 833 0
-832 830 0
-833 830 0
832 833 -830 0
46 100 -835 0
-46 100 835 0
46 -100 835 0
-46 -100 -835 0
835 830 -808 0
-835 830 808 0
835 -830 808 0
-835 -830 -808 0
830 -836 0
835 -836 0
-830 -835 836 0
100 -837 0
46 -837 0
-100 -46 837 0
-836 834 0
-837 834 0
836 837 -834 0
47 101 -839 0
-47 101 839 0
47 -101 839 0
-47 -101 -839 0
839 834 -809 0
-839 834 809 0
839 -834 809 0
-839 -834 -809 0
834 -840 0
839 -840 0
-834 -839 840 0
101 -841 0
47 -841 0
-101 -47 841 0
-840 838 0
-841 838 0
840 841 -838 0
48 102 -842 0
-48 102 842 0
48 -102 842 0
-48 -102 -842 0
842 838 -810 0
-842 838 810 0
842 -838 810 0
-842 -838 -810 0
838 -843 0
842 -843 0
-838 -842 843 0
102 -844 0
48 -844 0
-102 -48 844 0
-843 829 0
-844 829 0
843 844 -829 0
831 -845 0
835 -845 0
839 -845 0
842 -845 0
-831 -835 -839 -842 845 0
844 -846 0
-844 846 0
49 103 -875 0
-49 103 875 0
49 -103 875 0
-49 -103 -875 0
875 164 -865 0
-875 164 865 0
875 -164 865 0
-875 -164 -865 0
164 -876 0
875 -876 0
-164 -875 876 0
103 -877 0
49 -877 0
-103 -49 877 0
-876 874 0
-877 874 0
876 877 -874 0
50 104 -879 0
-50 104 879 0
50 -104 879 0
-50 -104 -879 0
879 874 -866 0
-879 874 866 0
879 -874 866 0
-879 -874 -866 0
874 -880 0
879 -880 0
-874 -879 880 0
104 -881 0
50 -881 0
-104 -50 881 0
-880 878 0
-881 878 0
880 881 -878 0
51 105 -883 0
-51 105 883 0
51 -105 883 0
-51 -105 -883 0
883 878 -867 0
-883 878 867 0
883 -878 867 0
-883 -878 -867 0
878 -884 0
883 -884 0
-878 -883 884 0
105 -885 0
51 -885 0
-105 -51 885 0
-884 882 0
-885 882 0
884 885 -882 0
52 106 -886 0
-52 106 886 0
52 -106 886 0
-52 -106 -886 0
886 882 -868 0
-886 882 868 0
886 -882 868 0
-886 -882 -868 0
882 -887 0
886 -887 0
-882 -886 887 0
106 -888 0
52 -888 0
-106 -52 888 0
-887 873 0
-888 873 0
887 888 -873 0
875 -889 0
879 -889 0
883 -889 0
886 -889 0
-875 -879 -883 -886 889 0
888 -890 0
-888 890 0
49 103 -893 0
-49 103 893 0
49 -103 893 0
-49 -103 -893 0
893 182 -869 0
-893 182 869 0
893 -182 869 0
-893 -182 -869 0
182 -894 0
893 -894 0
-182 -893 894 0
103 -895 0
49 -895 0
-103 -49 895 0
-894 892 0
-895 892 0
894 895 -892 0
50 104 -897 0
-50 104 897 0
50 -104 897 0
-50 -104 -897 0
897 892 -870 0
-897 892 870 0
897 -892 870 0
-897 -892 -870 0
892 -898 0
897 -898 0
-892 -897 898 0
104 -899 0
50 -899 0
-104 -50 899 0
-898 896 0
-899 896 0
898 899 -896 0
51 105 -901 0
-51 105 901 0
51 -105 901 0
-51 -105 -901 0
901 896 -871 0
-901 896 871 0
901 -896 871 0
-901 -896 -871 0
896 -902 0
901 -902 0
-896 -901 902 0
105 -903 0
51 -903 0
-105 -51 903 0
-902 900 0
-903 900 0
902 903 -900 0
52 106 -904 0
-52 106 904 0
52 -106 904 0
-52 -106 -904 0
904 900 -872 0
-904 900 872 0
904 -900 872 0
-904 -900 -872 0
900 -905 0
904 -905 0
-900 -904 905 0
106 -906 0
52 -906 0
-106 -52 906 0
-905 891 0
-906 891 0
905 906 -891 0
893 -907 0
897 -907 0
901 -907 0
904 -907 0
-893 -897 -901 -904 907 0
906 -908 0
-906 908 0
53 107 -933 0
-53 107 933 0
53 -107 933 0
-53 -107 -933 0
933 164 -927 0
-933 164 927 0
933 -164 927 0
-933 -164 -927 0
164 -934 0
933 -934 0
-164 -933 934 0
107 -935 0
53 -935 0
-107 -53 935 0
-934 932 0
-935 932 0
934 935 -932 0
54 108 -936 0
-54 108 936 0
54 -108 936 0
-54 -108 -936 0
936 932 -928 0
-936 932 928 0
936 -932 928 0
-936 -932 -928 0
932 -937 0
936 -937 0
-932 -936 937 0
108 -938 0
54 -938 0
-108 -54 938 0
-937 931 0
-938 931 0
937 938 -931 0
933 -939 0
936 -939 0
-933 -936 939 0
938 -940 0
-938 940 0
53 107 -943 0
-53 107 943 0
53 -107 943 0
-53 -107 -943 0
943 182 -929 0
-943 182 929 0
943 -182 929 0
-943 -182 -929 0
182 -944 0
943 -944 0
-182 -943 944 0
107 -945 0
53 -945 0
-107 -53 945 0
-944 942 0
-945 942 0
944 945 -942 0
54 108 -946 0
-54 108 946 0
54 -108 946 0
-54 -108 -946 0
946 942 -930 0
-946 942 930 0
946 -942 930 0
-946 -942 -930 0
942 -947 0
946 -947 0
-942 -946 947 0
108 -948 0
54 -948 0
-108 -54 948 0
-947 941 0
-948 941 0
947 948 -941 0
943 -949 0
946 -949 0
-943 -946 949 0
948 -950 0
-948 950 0
166 228 0
-166 -228 0
228 -229 0
183 -229 0
-228 -183 229 0
166 -230 0
187 -230 0
-166 -187 230 0
-229 113 0
-230 113 0
229 230 -113 0
166 231 0
-166 -231 0
231 -232 0
184 -232 0
-231 -184 232 0
166 -233 0
188 -233 0
-166 -188 233 0
-232 114 0
-233 114 0
232 233 -114 0
166 234 0
-166 -234 0
234 -235 0
185 -235 0
-234 -185 235 0
166 -236 0
189 -236 0
-166 -189 236 0
-235 115 0
-236 115 0
235 236 -115 0
166 237 0
-166 -237 0
237 -238 0
186 -238 0
-237 -186 238 0
166 -239 0
190 -239 0
-166 -190 239 0
-238 116 0
-239 116 0
238 239 -116 0
166 240 0
-166 -240 0
240 -241 0
191 -241 0
-240 -191 241 0
166 -242 0
209 -242 0
-166 -209 242 0
-241 227 0
-242 227 0
241 242 -227 0
166 -243 0
225 -243 0
-166 -225 243 0
-243 244 0
-227 244 0
243 227 -244 0
244 290 0
-244 -290 0
290 -291 0
245 -291 0
-290 -245 291 0
244 -292 0
249 -292 0
-244 -249 292 0
-291 117 0
-292 117 0
291 292 -117 0
244 293 0
-244 -293 0
293 -294 0
246 -294 0
-293 -246 294 0
244 -295 0
250 -295 0
-244 -250 295 0
-294 118 0
-295 118 0
294 295 -118 0
244 296 0
-244 -296 0
296 -297 0
247 -297 0
-296 -247 297 0
244 -298 0
251 -298 0
-244 -251 298 0
-297 119 0
-298 119 0
297 298 -119 0
244 299 0
-244 -299 0
299 -300 0
248 -300 0
-299 -248 300 0
244 -301 0
252 -301 0
-244 -252 301 0
-300 120 0
-301 120 0
300 301 -120 0
244 302 0
-244 -302 0
302 -303 0
253 -303 0
-302 -253 303 0
244 -304 0
271 -304 0
-244 -271 304 0
-303 289 0
-304 289 0
303 304 -289 0
244 -305 0
287 -305 0
-244 -287 305 0
-305 306 0
-289 306 0
305 289 -306 0
306 352 0
-306 -352 0
352 -353 0
307 -353 0
-352 -307 353 0
306 -354 0
311 -354 0
-306 -311 354 0
-353 121 0
-354 121 0
353 354 -121 0
306 355 0
-306 -355 0
355 -356 0
308 -356 0
-355 -308 356 0
306 -357 0
312 -357 0
-306 -312 357 0
-356 122 0
-357 122 0
356 357 -122 0
306 358 0
-306 -358 0
358 -359 0
309 -359 0
-358 -309 359 0
306 -360 0
313 -360 0
-306 -313 360 0
-359 123 0
-360 123 0
359 360 -123 0
306 361 0
-306 -361 0
361 -362 0
310 -362 0
-361 -310 362 0
306 -363 0
314 -363 0
-306 -314 363 0
-362 124 0
-363 124 0
362 363 -124 0
306 364 0
-306 -364 0
364 -365 0
315 -365 0
-364 -315 365 0
306 -366 0
333 -366 0
-306 -333 366 0
-365 351 0
-366 351 0
365 366 -351 0
306 -367 0
349 -367 0
-306 -349 367 0
-367 368 0
-351 368 0
367 351 -368 0
368 414 0
-368 -414 0
414 -415 0
369 -415 0
-414 -369 415 0
368 -416 0
373 -416 0
-368 -373 416 0
-415 125 0
-416 125 0
415 416 -125 0
368 417 0
-368 -417 0
417 -418 0
370 -418 0
-417 -370 418 0
368 -419 0
374 -419 0
-368 -374 419 0
-418 126 0
-419 126 0
418 419 -126 0
368 420 0
-368 -420 0
420 -421 0
371 -421 0
-420 -371 421 0
368 -422 0
375 -422 0
-368 -375 422 0
-421 127 0
-422 127 0
421 422 -127 0
368 423 0
-368 -423 0
423 -424 0
372 -424 0
-423 -372 424 0
368 -425 0
376 -425 0
-368 -376 425 0
-424 128 0
-425 128 0
424 425 -128 0
368 426 0
-368 -426 0
426 -427 0
377 -427 0
-426 -377 427 0
368 -428 0
395 -428 0
-368 -395 428 0
-427 413 0
-428 413 0
427 428 -413 0
368 -429 0
411 -429 0
-368 -411 429 0
-429 430 0
-413 430 0
429 413 -430 0
430 476 0
-430 -476 0
476 -477 0
431 -477 0
-476 -431 477 0
430 -478 0
435 -478 0
-430 -435 478 0
-477 129 0
-478 129 0
477 478 -129 0
430 479 0
-430 -479 0
479 -480 0
432 -480 0
-479 -432 480 0
430 -481 0
436 -481 0
-430 -436 481 0
-480 130 0
-481 130 0
480 481 -130 0
430 482 0
-430 -482 0
482 -483 0
433 -483 0
-482 -433 483 0
430 -484 0
437 -484 0
-430 -437 484 0
-483 131 0
-484 131 0
483 484 -131 0
430 485 0
-430 -485 0
485 -486 0
434 -486 0
-485 -434 486 0
430 -487 0
438 -487 0
-430 -438 487 0
-486 132 0
-487 132 0
486 487 -132 0
430 488 0
-430 -488 0
488 -489 0
439 -489 0
-488 -439 489 0
430 -490 0
457 -490 0
-430 -457 490 0
-489 475 0
-490 475 0
489 490 -475 0
430 -491 0
473 -491 0
-430 -473 491 0
-491 492 0
-475 492 0
491 475 -492 0
492 538 0
-492 -538 0
538 -539 0
493 -539 0
-538 -493 539 0
492 -540 0
497 -540 0
-492 -497 540 0
-539 133 0
-540 133 0
539 540 -133 0
492 541 0
-492 -541 0
541 -542 0
494 -542 0
-541 -494 542 0
492 -543 0
498 -543 0
-492 -498 543 0
-542 134 0
-543 134 0
542 543 -134 0
492 544 0
-492 -544 0
544 -545 0
495 -545 0
-544 -495 545 0
492 -546 0
499 -546 0
-492 -499 546 0
-545 135 0
-546 135 0
545 546 -135 0
492 547 0
-492 -547 0
547 -548 0
496 -548 0
-547 -496 548 0
492 -549 0
500 -549 0
-492 -500 549 0
-548 136 0
-549 136 0
548 549 -136 0
492 550 0
-492 -550 0
550 -551 0
501 -551 0
-550 -501 551 0
492 -552 0
519 -552 0
-492 -519 552 0
-551 537 0
-552 537 0
551 552 -537 0
492 -553 0
535 -553 0
-492 -535 553 0
-553 554 0
-537 554 0
553 537 -554 0
554 600 0
-554 -600 0
600 -601 0
555 -601 0
-600 -555 601 0
554 -602 0
559 -602 0
-554 -559 602 0
-601 137 0
-602 137 0
601 602 -137 0
554 603 0
-554 -603 0
603 -604 0
556 -604 0
-603 -556 604 0
554 -605 0
560 -605 0
-554 -560 605 0
-604 138 0
-605 138 0
604 605 -138 0
554 606 0
-554 -606 0
606 -607 0
557 -607 0
-606 -557 607 0
554 -608 0
561 -608 0
-554 -561 608 0
-607 139 0
-608 139 0
607 608 -139 0
554 609 0
-554 -609 0
609 -610 0
558 -610 0
-609 -558 610 0
554 -611 0
562 -611 0
-554 -562 611 0
-610 140 0
-611 140 0
610 611 -140 0
554 612 0
-554 -612 0
612 -613 0
563 -613 0
-612 -563 613 0
554 -614 0
581 -614 0
-554 -581 614 0
-613 599 0
-614 599 0
613 614 -599 0
554 -615 0
597 -615 0
-554 -597 615 0
-615 616 0
-599 616 0
615 599 -616 0
616 662 0
-616 -662 0
662 -663 0
617 -663 0
-662 -617 663 0
616 -664 0
621 -664 0
-616 -621 664 0
-663 141 0
-664 141 0
663 664 -141 0
616 665 0
-616 -665 0
665 -666 0
618 -666 0
-665 -618 666 0
616 -667 0
622 -667 0
-616 -622 667 0
-666 142 0
-667 142 0
666 667 -142 0
616 668 0
-616 -668 0
668 -669 0
619 -669 0
-668 -619 669 0
616 -670 0
623 -670 0
-616 -623 670 0
-669 143 0
-670 143 0
669 670 -143 0
616 671 0
-616 -671 0
671 -672 0
620 -672 0
-671 -620 672 0
616 -673 0
624 -673 0
-616 -624 673 0
-672 144 0
-673 144 0
672 673 -144 0
616 674 0
-616 -674 0
674 -675 0
625 -675 0
-674 -625 675 0
616 -676 0
643 -676 0
-616 -643 676 0
-675 661 0
-676 661 0
675 676 -661 0
616 -677 0
659 -677 0
-616 -659 677 0
-677 678 0
-661 678 0
677 661 -678 0
678 724 0
-678 -724 0
724 -725 0
679 -725 0
-724 -679 725 0
678 -726 0
683 -726 0
-678 -683 726 0
-725 145 0
-726 145 0
725 726 -145 0
678 727 0
-678 -727 0
727 -728 0
680 -728 0
-727 -680 728 0
678 -729 0
684 -729 0
-678 -684 729 0
-728 146 0
-729 146 0
728 729 -146 0
678 730 0
-678 -730 0
730 -731 0
681 -731 0
-730 -681 731 0
678 -732 0
685 -732 0
-678 -685 732 0
-731 147 0
-732 147 0
731 732 -147 0
678 733 0
-678 -733 0
733 -734 0
682 -734 0
-733 -682 734 0
678 -735 0
686 -735 0
-678 -686 735 0
-734 148 0
-735 148 0
734 735 -148 0
678 736 0
-678 -736 0
736 -737 0
687 -737 0
-736 -687 737 0
678 -738 0
705 -738 0
-678 -705 738 0
-737 723 0
-738 723 0
737 738 -723 0
678 -739 0
721 -739 0
-678 -721 739 0
-739 740 0
-723 740 0
739 723 -740 0
740 786 0
-740 -786 0
786 -787 0
741 -787 0
-786 -741 787 0
740 -788 0
745 -788 0
-740 -745 788 0
-787 149 0
-788 149 0
787 788 -149 0
740 789 0
-740 -789 0
789 -790 0
742 -790 0
-789 -742 790 0
740 -791 0
746 -791 0
-740 -746 791 0
-790 150 0
-791 150 0
790 791 -150 0
740 792 0
-740 -792 0
792 -793 0
743 -793 0
-792 -743 793 0
740 -794 0
747 -794 0
-740 -747 794 0
-793 151 0
-794 151 0
793 794 -151 0
740 795 0
-740 -795 0
795 -796 0
744 -796 0
-795 -744 796 0
740 -797 0
748 -797 0
-740 -748 797 0
-796 152 0
-797 152 0
796 797 -152 0
740 798 0
-740 -798 0
798 -799 0
749 -799 0
-798 -749 799 0
740 -800 0
767 -800 0
-740 -767 800 0
-799 785 0
-800 785 0
799 800 -785 0
740 -801 0
783 -801 0
-740 -783 801 0
-801 802 0
-785 802 0
801 785 -802 0
802 848 0
-802 -848 0
848 -849 0
803 -849 0
-848 -803 849 0
802 -850 0
807 -850 0
-802 -807 850 0
-849 153 0
-850 153 0
849 850 -153 0
802 851 0
-802 -851 0
851 -852 0
804 -852 0
-851 -804 852 0
802 -853 0
808 -853 0
-802 -808 853 0
-852 154 0
-853 154 0
852 853 -154 0
802 854 0
-802 -854 0
854 -855 0
805 -855 0
-854 -805 855 0
802 -856 0
809 -856 0
-802 -809 856 0
-855 155 0
-856 155 0
855 856 -155 0
802 857 0
-802 -857 0
857 -858 0
806 -858 0
-857 -806 858 0
802 -859 0
810 -859 0
-802 -810 859 0
-858 156 0
-859 156 0
858 859 -156 0
802 860 0
-802 -860 0
860 -861 0
811 -861 0
-860 -811 861 0
802 -862 0
829 -862 0
-802 -829 862 0
-861 847 0
-862 847 0
861 862 -847 0
802 -863 0
845 -863 0
-802 -845 863 0
-863 864 0
-847 864 0
863 847 -864 0
864 910 0
-864 -910 0
910 -911 0
865 -911 0
-910 -865 911 0
864 -912 0
869 -912 0
-864 -869 912 0
-911 157 0
-912 157 0
911 912 -157 0
864 913 0
-864 -913 0
913 -914 0
866 -914 0
-913 -866 914 0
864 -915 0
870 -915 0
-864 -870 915 0
-914 158 0
-915 158 0
914 915 -158 0
864 916 0
-864 -916 0
916 -917 0
867 -917 0
-916 -867 917 0
864 -918 0
871 -918 0
-864 -871 918 0
-917 159 0
-918 159 0
917 918 -159 0
864 919 0
-864 -919 0
919 -920 0
868 -920 0
-919 -868 920 0
864 -921 0
872 -921 0
-864 -872 921 0
-920 160 0
-921 160 0
920 921 -160 0
864 922 0
-864 -922 0
922 -923 0
873 -923 0
-922 -873 923 0
864 -924 0
891 -924 0
-864 -891 924 0
-923 909 0
-924 909 0
923 924 -909 0
864 -925 0
907 -925 0
-864 -907 925 0
-925 926 0
-909 926 0
925 909 -926 0
926 952 0
-926 -952 0
952 -953 0
927 -953 0
-952 -927 953 0
926 -954 0
929 -954 0
-926 -929 954 0
-953 161 0
-954 161 0
953 954 -161 0
926 955 0
-926 -955 0
955 -956 0
928 -956 0
-955 -928 956 0
926 -957 0
930 -957 0
-926 -930 957 0
-956 162 0
-957 162 0
956 957 -162 0
926 958 0
-926 -958 0
958 -959 0
931 -959 0
-958 -931 959 0
926 -960 0
941 -960 0
-926 -941 960 0
-959 951 0
-960 951 0
959 960 -951 0
926 -961 0
949 -961 0
-926 -949 961 0
-961 962 0
-951 962 0
961 951 -962 0
962 -163 0
-962 163 0
